p sp 20 30
a 1 2 1
a 1 3 1
a 1 4 1
a 2 1 1
a 2 5 1
a 2 6 1
a 7 8 1
a 7 4 1
a 7 9 1
a 8 7 1
a 8 5 1
a 8 10 1
a 11 12 1
a 11 13 1
a 11 14 1
a 12 11 1
a 12 15 1
a 12 14 1
a 5 2 1
a 5 8 1
a 5 6 1
a 13 11 1
a 13 16 1
a 13 17 1
a 16 13 1
a 16 18 1
a 16 19 1
a 6 2 1
a 6 5 1
a 6 17 1
a 17 13 1
a 17 6 1
a 17 18 1
a 18 16 1
a 18 17 1
a 18 20 1
a 15 12 1
a 15 9 1
a 15 14 1
a 9 7 1
a 9 15 1
a 9 20 1
a 20 18 1
a 20 9 1
a 20 3 1
a 3 1 1
a 3 20 1
a 3 19 1
a 4 1 1
a 4 7 1
a 4 10 1
a 10 8 1
a 10 4 1
a 10 19 1
a 19 16 1
a 19 3 1
a 19 10 1
a 14 11 1
a 14 12 1
a 14 15 1
